c Random Network
p max    10      20
n         1  s
n        10  t
a       3       1      41
a       4       1      37
a       1       3       4
a       2       7      45
a       1       2      30
a       8       9      19
a       4       2      23
a       1       8      49
a       3      10      17
a       3       2      39
a       9      10      46
a       6       7       1
a       7       9      12
a       3       8      39
a       6       3      20
a       3       9      15
a      10       6       5
a       6       1      37
a       3       5       9
a      10       5      44
